# H2O 1A1 ground state + core excited state
# 6-31G**/state-averaged GASSCF + DSRG-MRPT2 calculation
# averaging over the ground state and core-excited singlet B1 state
# at most one electron occupies the core orbital for B1 state

import forte

refscf    = -76.0172965561
refgasscf = -65.8667490786
refdsrg   = -66.0857536122

molecule h2o{
   O
   H  1 1.00
   H  1 1.00 2 103.1
}

set global {
  basis 6-31g**
  e_convergence 12
  d_convergence 8
  scf_type pk
  reference rhf
}

set forte {
  job_type            mcscf_two_step
  e_convergence       12
  active_ref_type     gas
  gas1                [1,0,0,0]
  gas2                [3,0,1,2]
  gas1max             [2,1]
  gas1min             [0,0]
  avg_state           [[0,1,1],[2,1,1]]
  casscf_ci_solver    genci
  casscf_maxiter      100
  casscf_e_convergence 1e-10
  casscf_g_convergence 1e-8
  casscf_active_frozen_orbital [0]
  casscf_micro_maxiter 2
}

escf, wfn = energy('scf', return_wfn=True)
egasscf, wfn_gasscf = energy('forte', ref_wfn=wfn, return_wfn=True)
compare_values(refgasscf, egasscf, 9, "GASSCF energy")

set forte {
  job_type            newdriver
  active_space_solver genci
  correlation_solver  dsrg-mrpt2
  dsrg_s              1.0
  calc_type           sa
}

edsrg = energy('forte', ref_wfn=wfn_gasscf)
compare_values(refdsrg, edsrg, 9, "GASSCF-DSRG-MRPT2 energy")
