#! Generated using commit GITCOMMIT
#! Perform aci on benzyne 

import forte

memory 500 mb

refscf    = -229.20378006852584 
refaci    = -229.359450812283
refacipt2 = -229.360444943286

molecule mbenzyne{
  0 1
   C   0.0000000000  -2.5451795941   0.0000000000
   C   0.0000000000   2.5451795941   0.0000000000
   C  -2.2828001669  -1.3508352528   0.0000000000
   C   2.2828001669  -1.3508352528   0.0000000000
   C   2.2828001669   1.3508352528   0.0000000000
   C  -2.2828001669   1.3508352528   0.0000000000
   H  -4.0782187459  -2.3208602146   0.0000000000
   H   4.0782187459  -2.3208602146   0.0000000000
   H   4.0782187459   2.3208602146   0.0000000000
   H  -4.0782187459   2.3208602146   0.0000000000

  units bohr
}

set globals{
   basis                   DZ
   df_basis_mp2            cc-pvdz-ri
   reference               uhf 
   scf_type                pk
   d_convergence           10
   e_convergence           12
   guess gwh
}

set forte {
  multiplicity 1
  frozen_docc                       [2,1,0,0,0,0,2,1]
  restricted_docc	                [3,2,0,0,0,0,2,3]
  active                            [1,0,1,2,1,2,1,0]
  root_sym                          0
  nroot                             1
  active_space_solver               aci
  sigma	                            0.001
  aci_add_aimed_degenerate          false
  sci_project_out_spin_contaminants false
  diag_algorithm                    full
  aci_screen_alg                    batch_hash
  aci_nbatch                        8
  active_guess_size                 100
}
set_num_threads(4)

scf = energy('scf')
compare_values(refscf, scf,10,"SCF Energy")

energy('forte')
compare_values(refaci, variable("ACI ENERGY"),10,"ACI energy")
compare_values(refacipt2, variable("ACI+PT2 ENERGY"),8,"ACI+PT2 energy")


