#! This tests the EX-CI procedure using energy selection
#! Generated using commit GITCOMMIT
# This option tests the selection criteria

import forte 

refscf = -14.5754349839908386 #TEST
refaci = -14.508218404628 #TEST
refacipt2 = -14.515584073636 #TEST

molecule li2{
   Li
   Li 1 1.0000
}

set {
  basis DZ
  e_convergence 10
  d_convergence 10
  r_convergence 10
}

set scf {
  scf_type pk
  reference rhf
  docc = [2,0,0,0,0,1,0,0]
}

set forte {
  job_type = aci
  multiplicity 1
  SELECT_TYPE aimed_energy
  perturb_select false
  excited_algorithm average
  n_average 2
  average_offset 1
  TAUP 0.01
  TAUQ 0.01
  nroot 3
  root 1 
  charge 0
  aci_initial_space cis
  enforce_spin_complete true
}

energy('scf')

compare_values(refscf, get_variable("CURRENT ENERGY"),9, "SCF energy") #TEST

energy('forte')
compare_values(refaci, get_variable("ACI ENERGY"),9, "ACI energy") #TEST
compare_values(refacipt2, get_variable("ACI+PT2 ENERGY"),8, "ACI+PT2 energy") #TEST
