#! This tests the Adaptive-CI procedure using energy selection
#! Generated using commit GITCOMMIT
#

import forte

refscf = -2.0310813811962456 #TEST
refaci = -2.115455548674 #TEST
refacipt2 = -2.116454734743 #TEST
spin_val = 1.02027340

molecule li2{
0 1
H -0.4  0.0 0.0
H  0.4  0.0 0.0
H  0.1 -0.3 1.0
H -0.1  0.5 1.0
}

set {
  basis cc-pVDZ
  e_convergence 12
  d_convergence  6
  scf_type pk
  guess gwh
}

set forte {
  multiplicity 1
  ms 0.0
  active_space_solver aci
  e_convergence 11
  r_convergence  7
  sigma 0.001000
  nroot 1
  charge 0
  diag_algorithm sparse
  active_guess_size 300
  ACI_SCREEN_ALG batch_hash
  aci_nbatch 2
  spin_analysis true
  spin_test true
}

Escf, wfn = energy('scf', return_wfn=True)

compare_values(refscf, variable("CURRENT ENERGY"),9, "SCF energy") #TEST

energy('forte', ref_wfn=wfn)
compare_values(refaci, variable("ACI ENERGY"),9, "ACI energy") #TEST
compare_values(refacipt2, variable("ACI+PT2 ENERGY"),8, "ACI+PT2 energy") #TEST
compare_values(spin_val, variable("SPIN CORRELATION TEST"),7, "Spin Correlation") #TEST
