# Test ACI transition dipole and oscillator strengths

import forte

r_scf = -154.809143227314
r_0ag = -154.845996422255
r_1ag = -154.590184917642
r_2ag = -154.453542434786
r_0bu = -154.545990730956
rosc_0ag_0bu = 1.103408141650
rosc_1ag_0bu = 0.013213520221
rosc_2ag_0bu = 0.040035110031

molecule butadiene{
0 1
H  1.080977 -2.558832  0.000000
H -1.080977  2.558832  0.000000
H  2.103773 -1.017723  0.000000
H -2.103773  1.017723  0.000000
H -0.973565 -1.219040  0.000000
H  0.973565  1.219040  0.000000
C  0.000000  0.728881  0.000000
C  0.000000 -0.728881  0.000000
C  1.117962 -1.474815  0.000000
C -1.117962  1.474815  0.000000
}

set {
  reference      rhf
  scf_type       df
  basis          def2-svp
  df_basis_scf   def2-universal-jkfit
  df_basis_mp2   def2-universal-jkfit
  e_convergence  10
  d_convergence  12
  maxiter        100
}

set forte{
  int_type            df
  active_space_solver aci
  sigma               0.001
  e_convergence       10
  frozen_docc         [2,0,0,2]
  restricted_docc     [5,0,0,4]
  active              [0,2,2,0]
  avg_state           [[0,1,3], [3,1,1]]
  transition_dipoles  [[0,1,0],[0,1,1],[0,1,2]]
  sci_excited_algorithm average
  mcscf_reference    false
}

energy('forte')

psi4.core.print_variables()
compare_values(r_0ag, variable("ENERGY ROOT 0 1AG"), 8, "CASCI(4,4) singlet Ag energy 0")
compare_values(r_1ag, variable("ENERGY ROOT 1 1AG"), 8, "CASCI(4,4) singlet Ag energy 1")
compare_values(r_2ag, variable("ENERGY ROOT 2 1AG"), 8, "CASCI(4,4) singlet Ag energy 2")
compare_values(r_0bu, variable("ENERGY ROOT 0 1BU"), 8, "CASCI(4,4) singlet Bu energy 0")
compare_values(rosc_0ag_0bu, variable("OSC. SINGLET 0AG -> 0BU"), 6, "Oscillator strength singlet 0Ag -> 0Bu")
compare_values(rosc_1ag_0bu, variable("OSC. SINGLET 1AG -> 0BU"), 6, "Oscillator strength singlet 1Ag -> 0Bu")
compare_values(rosc_2ag_0bu, variable("OSC. SINGLET 2AG -> 0BU"), 6, "Oscillator strength singlet 2Ag -> 0Bu")
