#! RHF-SR-LCTSD DZ energy for the H2O molecule, with Z matrix input.
#! Reference energy from a spin-orbit pilot code
#! Generated using commit GITCOMMIT

import forte

refscf = -76.005679425830 #TEST
refct  = -76.158509610586947 #TEST
molecule {
0 1
O
H 1 1.0
H 1 1.0 2 104.5
}

set {
  basis DZ
  scf_type pk
  reference rhf
  e_convergence 12
}

set forte{
  det_threshold 0.01
  maxiter 50
  job_type tensorsrg
  srg_mode ct
}

energy('scf')
compare_values(refscf, variable("SCF total energy"),8, "SCF energy") #TEST
energy('forte')
compare_values(refct, variable("CURRENT ENERGY"),8, "SR-CTSD energy") #TEST
