#! Generated using commit GITCOMMIT

import forte

refmcscf   = -106.752885060582
refpt2sub  = -106.990277098987
refpt2full = -106.990992385754
refpt2ms   = -106.989495562679
refpt2xms  = -106.989466062352
refvalues  = [refpt2sub, refpt2full, refpt2ms, refpt2xms]

molecule {
  0 1
  Li
  F  1 R
  R = 10.000

  units bohr
}

basis {
  assign Li Li-cc-pvdz
  assign F  aug-cc-pvdz
[ Li-cc-pvdz ]
spherical
****
Li     0
S   8   1.00
   1469.0000000              0.0007660
    220.5000000              0.0058920
     50.2600000              0.0296710
     14.2400000              0.1091800
      4.5810000              0.2827890
      1.5800000              0.4531230
      0.5640000              0.2747740
      0.0734500              0.0097510
S   8   1.00
   1469.0000000             -0.0001200
    220.5000000             -0.0009230
     50.2600000             -0.0046890
     14.2400000             -0.0176820
      4.5810000             -0.0489020
      1.5800000             -0.0960090
      0.5640000             -0.1363800
      0.0734500              0.5751020
S   1   1.00
      0.0280500              1.0000000
P   3   1.00
      1.5340000              0.0227840
      0.2749000              0.1391070
      0.0736200              0.5003750
P   1   1.00
      0.0240300              1.0000000
D   1   1.00
      0.1239000              1.0000000
****
}

set globals{
  reference           rhf
  scf_type            out_of_core
  maxiter             300
  e_convergence       10
  d_convergence       10
  docc                [4,0,1,1]
  restricted_docc     [3,0,1,1]
  active              [2,0,0,0]
  mcscf_r_convergence 8
  mcscf_e_convergence 10
  mcscf_maxiter       250
  mcscf_diis_start    6
  num_roots           2
  follow_root         2
  avg_states          [0,1]
}

set forte{
  job_type           dsrg-mrpt2
  frozen_docc        [2,0,0,0]
  restricted_docc    [1,0,0,0]
  active             [3,0,2,2]
  dsrg_s             0.5
  maxiter            500
  dl_maxiter         1000
  e_convergence      10
  cas_type           cas
  avg_state          [[0,1,2]]
  semi_canonical     false
}

Emcscf, wfn = energy('casscf', return_wfn=True)
compare_values(refmcscf,Emcscf,8,"SA-CASSCF energy")

# MS
psi4.print_out("\n==> !! MS !! <==\n")
set forte{
  dsrg_multi_state   ms
}
Ems = energy('forte', ref_wfn=wfn)

# XMS
psi4.print_out("\n==> !! XMS !! <==\n")
set forte{
  dsrg_multi_state   xms
}
Emcscf, wfn = energy('casscf', return_wfn=True)
Exms = energy('forte', ref_wfn=wfn)

# SA SUB
psi4.print_out("\n==> !! SA_SUB !! <==\n")
set forte{
  dsrg_multi_state   sa_sub
  semi_canonical     true
}
Emcscf, wfn = energy('casscf', return_wfn=True)
Esub = energy('forte', ref_wfn=wfn)

# SA FULL
psi4.print_out("\n==> !! SA_FULL !! <==\n")
set forte{
  dsrg_multi_state   sa_full
}
Emcscf, wfn = energy('casscf', return_wfn=True)
Efull = energy('forte', ref_wfn=wfn)

names = ["SA-SUB", "SA-FULL", "MS", "XMS"]
values = [Esub, Efull, Ems, Exms]

psi4.print_out("\n  ==> Ground State Comparison <==\n")
psi4.print_out("\n           {0:^17}  {1:^17}  {2:^10}".format("Ref. Values", "Real Values", "Delta"))
psi4.print_out("\n  " + "-" * 57)
for i in range(4):
    psi4.print_out("\n  {0:7s}  {1:17.12f}  {2:17.12f}  {3:10.3e}".format(names[i],refvalues[i],values[i],values[i]-refvalues[i]))
psi4.print_out("\n  " + "-" * 57 + "\n\n")

compare_values(refpt2sub,Esub,8,"SA-DSRG-MRPT2 SUB energy root 0")
compare_values(refpt2full,Efull,8,"SA-DSRG-MRPT2 FULL energy root 0")
compare_values(refpt2ms,Ems,8,"MS-DSRG-MRPT2 energy root 0")
compare_values(refpt2xms,Exms,8,"XMS-DSRG-MRPT2 energy root 0")
