# DSRG-MRPT2 gradient on N2
import forte

ref_grad = psi4.Matrix.from_list([
      [0.000000000000,     0.000000000000,     0.052196743995],
      [0.000000000000,     0.000000000000,    -0.052196743995]
      ])

molecule {
0 1
N
N 1 1.1
}

set {
  basis cc-pvdz
  reference rohf
  scf_type pk
  e_convergence 10
  d_convergence 10
  restricted_docc [ 2,  0,  0,  0, 0, 2,  0, 0]
  active          [ 1,  0,  1,  1, 0, 1,  1, 1]
  mcscf_type           conv
  mcscf_maxiter        100
  mcscf_diis_start     20
  mcscf_e_convergence  10
  mcscf_r_convergence  8
  cholesky_tolerance   1e-5
}

set scf_type direct

set forte {
  ref_type  casscf
  #                Ag B1g B2g B3g Au B1u B2u B3u
  restricted_docc [ 2,  0,  0,  0, 0, 2,  0, 0]
  active          [ 1,  0,  1,  1, 0, 1,  1, 1]
  active_space_solver  cas
  correlation_solver   dsrg-mrpt2
  dsrg_s               1.0
  int_type             cholesky
}

grad = gradient('forte')
compare_matrices(ref_grad, grad, 6, "DSRG-MRPT2/CAS(6,6) gradient on N2")
