# Basic ACI calculation with energy threshold selection

import forte

refscf = -76.02665366188849 #TEST
refaci = -76.026653661888 #TEST
refacipt2 = -76.285659666305 #TEST

molecule h2o{
0 1
 O
 H 1 0.96
 H 1 0.96 2 104.5
}

set {
  basis cc-pvdz
  scf_type pk
  e_convergence 10
  d_convergence 6
  r_convergence 10
}

set forte {
  active_space_solver aci
  multiplicity 1
  ms 0.0
  sigma 0.9
  sci_max_cycle 1
  nroot 1
  root_sym 0
  charge 0
  active_ref_type hf
  full_mrpt2 true
}

Escf, wfn = energy('scf', return_wfn=True)
compare_values(refscf, variable("CURRENT ENERGY"), 9, "SCF energy") #TEST

energy('forte', ref_wfn=wfn)
compare_values(refaci, variable("ACI ENERGY"), 9, "ACI energy") #TEST
compare_values(refacipt2, variable("ACI+PT2 ENERGY"), 8, "ACI+PT2 energy") #TEST
