#! Generated using commit GITCOMMIT
#! Perform a DF-DSRG-MRPT2 on benzyne 

import forte


memory 500 mb

refmcscf   =  -226.575081996603
refdsrgpt2 =  -226.884456822714441

molecule mbenzyne{
  0 1
   C   0.0000000000  -2.5451795941   0.0000000000
   C   0.0000000000   2.5451795941   0.0000000000
   C  -2.2828001669  -1.3508352528   0.0000000000
   C   2.2828001669  -1.3508352528   0.0000000000
   C   2.2828001669   1.3508352528   0.0000000000
   C  -2.2828001669   1.3508352528   0.0000000000
   H  -4.0782187459  -2.3208602146   0.0000000000
   H   4.0782187459  -2.3208602146   0.0000000000
   H   4.0782187459   2.3208602146   0.0000000000
   H  -4.0782187459   2.3208602146   0.0000000000

  units bohr
}

set globals{
   basis                   sto-3g
   df_basis_mp2            cc-pvdz-ri
   reference               TWOCON
   scf_type                pk
   d_convergence           10
   e_convergence           12
}

set mcscf{
   docc                   [5, 3, 1, 1, 0, 1, 4, 4]
   socc                   [1, 0, 0, 0, 0, 0, 1, 0]
   maxiter                 500
#   level_shift             1.0
}

set forte {
   frozen_docc            [2, 1, 0, 0, 0, 0, 2, 1]
   restricted_docc        [3, 2, 1, 1, 0, 1, 2, 3]
   active                 [1, 0, 0, 0, 0, 0, 1, 0]
   root_sym                0
   nroot                   1
#   dsrgpt                  false
   dsrg_s                  0.5
   int_type                DF
   job_type                three-dsrg-mrpt2
}

scf = energy('mcscf')
energy('forte')

compare_values(refmcscf, scf,10,"SCF Energy")
compare_values(refdsrgpt2, get_variable("CURRENT ENERGY"),10,"DSRG-MRPT2 energy")

