# Here we test passing options as a dictionary via the energy function

import forte

refscf = -7.862246310410
reffci = -7.696581880925145

molecule {
0 1
Li
H 1 R

R = 3.0
units bohr 
}

set {
  basis sto-3g
  reference rhf
  scf_type pk
  e_convergence 12
}

set forte {
  restricted_docc [1,0,0,0]
  active [3,0,1,1]
  root_sym 1
  ms 1.0
}

energy('scf')
compare_values(refscf, variable("CURRENT ENERGY"),11, "SCF energy") #TEST

energy('forte',forte_options={"active_space_solver":"fci", "active":[4,0,1,1],"restricted_docc":[0,0,0,0],"root_sym":2,"ms":0.0})
compare_values(reffci, variable("CURRENT ENERGY"),11, "FCI energy") #TEST
