#! Generated using commit GITCOMMIT
# This test took about 10 minutes.

Ept2_root0 = -384.35415564382231
Ept2_root1 = -384.13777346489417
Ept2_root2 = -384.11253153943835

import forte
memory 1.5 gb

molecule naphthalene{
0 1
H  1.240557  2.492735  0.000000
H -1.240557 -2.492735  0.000000
H -1.240557  2.492735  0.000000
H  1.240557 -2.492735  0.000000
H  3.377213  1.246082  0.000000
H -3.377213 -1.246082  0.000000
H -3.377213  1.246082  0.000000
H  3.377213 -1.246082  0.000000
C  0.000000  0.716253  0.000000
C  0.000000 -0.716253  0.000000
C  1.241539  1.403577  0.000000
C -1.241539 -1.403577  0.000000
C -1.241539  1.403577  0.000000
C  1.241539 -1.403577  0.000000
C  2.432418  0.707325  0.000000
C -2.432418 -0.707325  0.000000
C -2.432418  0.707325  0.000000
C  2.432418 -0.707325  0.000000
}

set {
  reference     rhf
  scf_type      df
  basis         def2-svp
  df_basis_scf  def2-svp-jkfit
  df_basis_mp2  def2-svp-ri
  e_convergence 10
  d_convergence 12
  maxiter       100
  docc          [9,6,1,1,1,2,7,7]
}

set forte{
  job_type               dwms-dsrgpt2
  int_type               df
  cas_type               cas
  dsrg_s                 0.50
  frozen_docc            [3,2,0,0,0,0,3,2]
  restricted_docc        [6,4,0,0,0,0,4,5]
  active                 [0,0,2,3,2,3,0,0]
  dl_maxiter             5000
  e_convergence          10
  avg_state              [[0,1,3]]
  dwms_zeta              100.0
}
energy('forte')
compare_values(Ept2_root0,get_variable("ENERGY ROOT 0"),8,"DWMS-DSRG-PT2 energy on root 0")
compare_values(Ept2_root1,get_variable("ENERGY ROOT 1"),8,"DWMS-DSRG-PT2 energy on root 1")
compare_values(Ept2_root2,get_variable("ENERGY ROOT 2"),8,"DWMS-DSRG-PT2 energy on root 2")
