molecule {
He 
He 1 1.0
}

set basis cc-pVDZ

set e_convergence 12
energy('fci')
