# HF, RHF canonical orbitals, CAS-CI(2,2)
#! Generated using commit GITCOMMIT

import forte

refscf = -108.71420304902
refaci = -108.73219829437
refacipt2 = -108.732290101935 

molecule hf{
   N
   N 1 1.732878731527
units bohr
}

set {
  basis dz
  scf_type pk
  e_convergence 10
  d_convergence 10
  r_convergence 10
}

set forte {
  job_type aci
  select_type aimed_energy
  frozen_docc [2,0,0,0,0,1,1,0]
# active [1,0,1,1,0,2,0,1]
  frozen_uocc [3,0,1,1,0,3,1,1]
  taup 0.0001
  tauq 0.0001
  charge 0
  nroot 1
}

energy('scf')
compare_values(refscf, get_variable("SCF total energy"),10, "SCF energy") #TEST
energy('forte')
compare_values(refaci, get_variable("ACI ENERGY"),10, "ACI energy") #TEST
compare_values(refacipt2, get_variable("ACI+PT2 ENERGY"),10, "ACI+PT2 energy") #TEST
