# H2 singlet, minimal basis RHF/FCI done with GAS

import forte

refgasci = -1.145741671060

molecule h2{
H
H 1 0.75
}

set {
  basis sto-6g 
  e_convergence 12
}

set scf {
  scf_type pk
  reference rhf
}

set forte {
  active_space_solver genci
  multiplicity 1
  ms 0.0
  gas1            [1,0,0,0,0,0,0,0]
  gas2            [0,0,0,0,0,1,0,0]
  fci_test_rdms   true
}

energy('scf')
energy('forte')
compare_values(refgasci,variable("CURRENT ENERGY"),10,"GASCI")

compare_values(0.0, variable("AA 1-RDM ERROR"),12, "AA 1-RDM") #TEST
compare_values(0.0, variable("BB 1-RDM ERROR"),12, "BB 1-RDM") #TEST
compare_values(0.0, variable("AAAA 2-RDM ERROR"),12, "AAAA 2-RDM") #TEST
compare_values(0.0, variable("BBBB 2-RDM ERROR"),12, "BBBB 2-RDM") #TEST
compare_values(0.0, variable("ABAB 2-RDM ERROR"),12, "ABAB 2-RDM") #TEST
compare_values(0.0, variable("AABAAB 3-RDM ERROR"),12, "AABAAB 3-RDM") #TEST
compare_values(0.0, variable("ABBABB 3-RDM ERROR"),12, "ABBABB 3-RDM") #TEST
compare_values(0.0, variable("AAAAAA 3-RDM ERROR"),12, "AAAAAA 3-RDM") #TEST
compare_values(0.0, variable("BBBBBB 3-RDM ERROR"),12, "BBBBBB 3-RDM") #TEST
