molecule {
    H 0.0 0.0 0.0
    H 0.0 0.0 1.0
}

set scf_type pk
set basis cc-pVDZ

energy('scf')
