# A test of CASSCF gradient on BeH2 with c2v symmetry

import forte

ref_grad = psi4.Matrix.from_list([
      [ 0.000000000000,  0.000000000000, -0.026176792678],
      [-0.000000000000,  0.017373105060,  0.013088396339],
      [ 0.000000000000, -0.017373105060,  0.013088396339]
      ])

molecule {
  0 1
  Be        0.000000000000     0.000000000000     0.000000000000
  H         0.000000000000     1.390000000000     0.300000000000
  H         0.000000000000    -1.390000000000     0.300000000000 
  symmetry c2v
  no_reorient
}

set globals {
  scf_type             pk
  basis                3-21g
}

set forte{
  active_space_solver  fci
  restricted_docc      [2,0,0,0]
  active               [1,0,0,1]
  mcscf_e_convergence  1e-10
  dertype              first
}

grad = gradient('forte')
compare_matrices(ref_grad, grad, 6, "CASSCF gradient on BeH2 with c2v symmetry")
