import forte


memory 500 mb

refmcscf   =   -226.280722918556
refdsrgpt2 =  -226.575016871111

molecule mbenzyne{
  0 1
   C   0.0000000000  -2.5451795941   0.0000000000
   C   0.0000000000   2.5451795941   0.0000000000
   C  -2.2828001669  -1.3508352528   0.0000000000
   C   2.2828001669  -1.3508352528   0.0000000000
   C   2.2828001669   1.3508352528   0.0000000000
   C  -2.2828001669   1.3508352528   0.0000000000
   H  -4.0782187459  -2.3208602146   0.0000000000
   H   4.0782187459  -2.3208602146   0.0000000000
   H   4.0782187459   2.3208602146   0.0000000000
   H  -4.0782187459   2.3208602146   0.0000000000

  units bohr
}

set globals{
   basis                   sto-3g
   df_basis_mp2            cc-pvdz-ri
   df_basis_scf            cc-pvdz-jkfit
   scf_type                out_of_core
   d_convergence           10
   e_convergence           12
   frozen_docc            [2, 1, 0, 0, 0, 0, 2, 1]
   restricted_docc        [3, 2, 1, 1, 0, 1, 2, 3]
   active                 [1, 0, 0, 0, 0, 0, 1, 0]
   maxiter                 500
   reference               RHF
}

set scf_type  direct
set forte {
   frozen_docc            [2, 1, 0, 0, 0, 0, 2, 1]
   restricted_docc        [3, 2, 1, 1, 0, 1, 2, 3]
   active                 [1, 0, 0, 0, 0, 0, 1, 0]
   root_sym                0
   nroot                   1
   multiplicity            1
   int_type                conventional
   cas_type                FCI
   #casscf_reference        true
   #CASSCF_ITERATIONS       25
   job_type                 FCI
}

#scf = energy('casscf')

scf = energy('mcscf')
compare_values(refmcscf, scf,10,"SCF Energy")
energy('forte')
compare_values(refdsrgpt2, get_variable("CURRENT ENERGY"),6,"CASSCF energy")
