import forte

refmcscf   =  -226.57507656 # lower energy solution used since v0.4.0

molecule mbenzyne{
0 1
C   0.0000000000  -2.5451795941   0.0000000000
C   0.0000000000   2.5451795941   0.0000000000
C  -2.2828001669  -1.3508352528   0.0000000000
C   2.2828001669  -1.3508352528   0.0000000000
C   2.2828001669   1.3508352528   0.0000000000
C  -2.2828001669   1.3508352528   0.0000000000
H  -4.0782187459  -2.3208602146   0.0000000000
H   4.0782187459  -2.3208602146   0.0000000000
H   4.0782187459   2.3208602146   0.0000000000
H  -4.0782187459   2.3208602146   0.0000000000
units bohr
}

set globals{
   basis                   sto-3g
   scf_type                pk
}

set forte {
   active_space_solver     fci
   frozen_docc            [2, 1, 0, 0, 0, 0, 2, 1]
   restricted_docc        [3, 2, 1, 1, 0, 1, 2, 3]
   active                 [1, 0, 0, 0, 0, 0, 1, 0]
   root_sym                0
   nroot                   1
   multiplicity            1
   mcscf_freeze_core       true
}

energy('forte')
compare_values(refmcscf, variable("CURRENT ENERGY"),6,"CASSCF energy")
