# LiH triplet B1 state (M_S = 0), minimal basis set RHF/CASCI

import forte

refscf = -7.862246310410
reffci = -7.716243788616

molecule {
0 1
Li
H 1 R

R = 3.0
units bohr 
}

set {
  basis sto-3g
  reference rhf
  scf_type pk
  e_convergence 12
}

set forte {
  active_space_solver genci
  active              [4,0,1,1]
  restricted_docc     [0,0,0,0]
  root_sym            2
  multiplicity        3
  ms                  0.0
}

energy('scf')
compare_values(refscf, variable("CURRENT ENERGY"),11, "SCF energy")

energy('forte')
compare_values(reffci, variable("CURRENT ENERGY"),11, "FCI energy")
