#! This tests the Adaptive Path-Integral FCI procedure with dynamic prescreening
#! Generated using commit GITCOMMIT

import forte

refscf = -14.6097447380899563 #TEST
refpci = -14.646161244794 #TEST

molecule li2{
   Li
   Li 1 2.0000
}

set {
  basis sto-3g
  scf_type pk
  e_convergence 12
}

set forte {
  job_type pci_hashvec
  PCI_GENERATOR DL
  pci_spawning_threshold 0.0001
  pci_e_convergence 12
  PCI_STOP_HIGHER_NEW_LOW true
}

energy('scf')
compare_values(refscf, get_variable("CURRENT ENERGY"), 10, "SCF energy") #TEST

energy('forte')
compare_values(refpci, get_variable("PCI ENERGY"), 9, "PCI energy") #TEST
