# Basic ACI calculation with energy threshold selection

import forte

refaci = -14.889166993726
refacipt2 = -14.890166618934

molecule li2{
0 1
   Li
   Li 1 2.0000
}

set {
  basis DZ
  e_convergence 10
  d_convergence  8
  scf_type pk
}

set forte {
  active_space_solver aci
  sigma 0.001
  sci_enforce_spin_complete false
  sci_project_out_spin_contaminants false
  active_ref_type hf
  DL_DETS_PER_GUESS 2
  casscf_reference false
}

energy('forte')
compare_values(refaci, variable("ACI ENERGY"),9, "ACI energy") #TEST
compare_values(refacipt2, variable("ACI+PT2 ENERGY"),8, "ACI+PT2 energy") #TEST
