#! This tests the Adaptive Path-Integral FCI procedure with dynamic prescreening
#! Generated using commit GITCOMMIT

import forte

refscf = -14.6097447380899581 #TEST
refpci = -14.646162606275 #TEST

molecule li2{
   Li
   Li 1 2.0000
}

set {
  basis sto-3g
  scf_type pk
  e_convergence 12
}

set forte {
  active_space_solver pci
  nroot 1
  charge 0
  PCI_GENERATOR DL
  pci_spawning_threshold 0.0001
  pci_USE_INTER_NORM true
  orbital_type MP2_NOS
  sci_max_cycle 100000.00
  pci_e_convergence 1.0e-10
  PCI_STOP_HIGHER_NEW_LOW true
}

energy('scf')
compare_values(refscf, variable("CURRENT ENERGY"), 11, "SCF energy") #TEST

energy('forte')
compare_values(refpci, variable("PCI ENERGY"), 8, "PCI energy") #TEST
