#! Water-Argon complex with ECP present; RHF energy from FCI.

import forte

#nucenergy =  23.253113522963400  #TEST
nucenergy =   23.2531136143627961
#refenergy =  -96.673557940220277  #TEST
refenergy =  -96.673557940467774

molecule arwater {
    Ar  0.000000000000     0.000000000000     3.000000000000
    O   0.000000000000     0.000000000000    -0.071143036192
    H   0.000000000000    -0.758215806856     0.564545805801
    H   0.000000000000     0.758215806856     0.564545805801
}

set = {
    scf_type       pk
    basis          lanl2dz
    df_scf_guess   false
    d_convergence  10
}

set forte {
  job_type fci
  restricted_docc  [5,0,2,2]
  active           [0,0,0,0]
}

e = energy('forte')
compare_values(nucenergy, arwater.nuclear_repulsion_energy(), 9, "Nuclear repulsion energy")   #TEST
compare_values(refenergy, e, 9, "FCI energy with ECP")                                          #TEST
