#! Generated using commit GITCOMMIT

import forte

#refrhf     = -108.98300653123336 # cc-pVTZ
#refdsrgpt2 = -109.36841715616309 # cc-pVTZ
#refdsrgpt2 = -109.368233368547152 # cc-pVTZ semi_canonical false
refrhf     = -108.95379624015762 # cc-pVDZ
refdsrgpt2 = -109.25041672286461 # cc-pVDZ

memory 500 mb

molecule N2{
  0 1
  N
  N  1 R
  R = 1.1
}

set globals{
#   basis                   cc-pvtz
   basis                   cc-pvdz
   reference               rhf
   scf_type                pk
   d_convergence           12
   e_convergence           15
}

set forte{
   job_type               dsrg-mrpt2
   restricted_docc        [2,0,0,0,0,2,0,0]
   active                 [1,0,1,1,0,1,1,1]
   root_sym               0
   nroot                  1
   dsrg_s                 1.0
#   semi_canonical         false
}

ref_current = energy('rhf')
energy('forte')

compare_values(refrhf,ref_current,10,"SCF energy")
compare_values(refdsrgpt2,get_variable("CURRENT ENERGY"),10,"DSRG-MRPT2 energy")
