# BeH2 with symmetry

import forte

refscf     = -15.50490325102
refcasscf  = -15.51070257217

molecule {
0 1
Be        0.000000000000     0.000000000000     0.000000000000
H         0.000000000000     1.390000000000     2.500000000000
H         0.000000000000    -1.390000000000     2.500000000000
units bohr
no_reorient
}

set globals{
  scf_type             pk
  basis                3-21g
}

set forte{
  active_space_solver  fci
  restricted_docc      [2,0,0,0]
  active               [1,0,0,1]
  mcscf_e_convergence  1e-10
  mcscf_g_convergence  1e-6
}
casscf = energy('forte')

compare_values(refcasscf, casscf, 8, "CASSCF ENERGY")
