#! This tests the Adaptive Path-Integral FCI procedure with no prescreening
#! Generated using commit GITCOMMIT

import forte

refscf = -14.6097447388741113 #TEST
refapifci = -14.646160455909 #TEST

molecule li2{
   Li
   Li 1 2.0000
}

set {
  basis sto-3g
  scf_type pk
  e_convergence 12
}

set forte {
  job_type apici
  tau 0.1
  spawning_threshold 0.0001
}
energy('scf')
compare_values(refscf, get_variable("CURRENT ENERGY"), 11, "SCF energy") #TEST

energy('forte')
compare_values(refapifci, get_variable("APIFCI ENERGY"), 11, "APIFCI energy") #TEST


