# This tests the Adaptive-CI procedure using energy selection

import forte

refaci = -14.889166993732 #TEST
refaci_spin = 0.0
refacipt2 = -14.890166618940 #TEST

molecule li2{
   Li
   Li 1 2.0000
}

set {
  basis DZ
  scf_type pk
  docc [2,0,0,0,0,1,0,0]
  e_convergence 10
  d_convergence 6
  r_convergence 10
}

set forte {
  active_space_solver aci
  sigma 0.001
  sci_enforce_spin_complete false
  diag_algorithm full 
  mcscf_reference false
}

energy('forte')
compare_values(refaci, variable("ACI ENERGY"),9, "ACI energy") #TEST
#compare_values(refaci_spin, variable("ACI SPIN"),9, "ACI spin") #TEST
compare_values(refacipt2, variable("ACI+PT2 ENERGY"),8, "ACI+PT2 energy") #TEST
