# forte/tests/manual/fci-2/input.dat

import forte

molecule li2 {
0 1
Li
Li 1 2.0
}

set {
    basis cc-pVDZ
    reference rhf
    e_convergence 9
}

set forte {
    active_space_solver fci
    ci_spin_adapt true
    multiplicity 5
}

# run a RHF computation
E_scf, scf_wfn = energy('scf', return_wfn=True)

# pass the RHF orbitals to Forte and run a FCI computation
energy('forte', ref_wfn=scf_wfn)
