#! Generated using commit GITCOMMIT 
# Basic ACI calculation with energy threshold selection

import forte

refscf = -14.8434688911343375 #TEST
refaci = -14.909030031215 #TEST
refacipt2 = -14.910524556200 #TEST

molecule li2{
   Li
   Li 1 2.0000
}

set {
  basis cc-pvtz
  e_convergence 10
  d_convergence 10
  r_convergence 10
}

set scf {
  scf_type pk
  reference rhf
  docc = [2,0,0,0,0,1,0,0]
}

set forte {
  job_type = aci
  ACI_SELECT_TYPE aimed_energy
  diag_algorithm davidsonliulist
  sigma 0.0015
  gamma 0.0015
  nroot 1
  charge 0
  sci_enforce_spin_complete true
}

energy('scf')

compare_values(refscf, variable("CURRENT ENERGY"),9,"SCF energy")

energy('forte')

compare_values(refaci, variable("ACI ENERGY"),9,"ACI energy")
compare_values(refacipt2, variable("ACI+PT2 ENERGY"),9,"ACI+PT2 energy")

