import forte

refscf = -76.07925670423528
reffci = -76.09203532830179

molecule h2o {
  O 
  H 1 0.96
  H 1 0.96 2 104.5
}

set {
  basis cc-pVDZ-DK
  relativistic X2C
  basis_relativistic cc-pVDZ-DK
  scf_type pk
  reference rhf
  e_convergence 10
  d_convergence 10
  r_convergence 10
}

set forte {
  active_space_solver fci
  restricted_docc [2,0,0,0]
  active          [2,0,1,3]
}

E, wfn = energy('scf', return_wfn=True)
compare_values(refscf, variable("CURRENT ENERGY"),11, "SCF energy")

E, wfn = energy('forte', ref_wfn=wfn, return_wfn=True)
compare_values(reffci, variable("CURRENT ENERGY"),11, "FCI energy")

