# Li2 minimal basis FCI
import forte

refscf = -14.548739101084
reffci = -14.595808852754

molecule {
0 1
Li
Li 1 R
R = 3.0
units bohr
}

set {
  basis sto-3g
  scf_type pk
  e_convergence 12
}

set forte {
  active_space_solver genci
  mcscf_reference false
}

energy('scf')
compare_values(refscf, variable("CURRENT ENERGY"),11, "SCF energy") #TEST

energy('forte')
compare_values(reffci, variable("CURRENT ENERGY"),11, "FCI energy") #TEST

refvals = [
    ("ENERGY ROOT 0 1AG"        , -14.595808852754),
    ("NUCLEAR REPULSION ENERGY" ,   3.000000000000),
    ("SCF TOTAL ENERGY"         , -14.548739101084),
    ("SINGLET <0AG|DM_X|0AG>"   ,   0.000000000000),
    ("SINGLET <0AG|DM_Y|0AG>"   ,   0.000000000000),
    ("SINGLET <0AG|DM_Z|0AG>"   ,   0.000000000000),
    ("SINGLET <0AG|QM_XX|0AG>"  ,  -9.216219318617),
    ("SINGLET <0AG|QM_XY|0AG>"  ,   0.000000000000),
    ("SINGLET <0AG|QM_XZ|0AG>"  ,   0.000000000000),
    ("SINGLET <0AG|QM_YY|0AG>"  ,  -9.216219318617),
    ("SINGLET <0AG|QM_YZ|0AG>"  ,   0.000000000000),
    ("SINGLET <0AG|QM_ZZ|0AG>"  ,  -6.361472474611),
    ("SINGLET |<0AG|DM|0AG>|"   ,   0.000000000000),
]   
    
for label, val in refvals:             
    compare_values(val, variable(label),10,label)
