molecule {
     H 0.0 0.0 0.0
     H 0.0 0.0 1.5
     H 0.0 0.0 3.0
     H 0.0 0.0 4.5   
}

energy('fci/sto-3g')
