#! Generated using commit a65ae7a89c66a04f62cab1fadf05bfd7d88f0c69

import forte

refscf = -7.862246310410
reffci = -7.716243788616362

molecule {
0 1
Li
H 1 R

R = 3.0
units bohr 
}

set {
  basis sto-3g
  reference rhf
}

set libadaptive {
  print 1
  job_type fci
  active [4,0,1,1]
  restricted_docc [0,0,0,0]
  root_sym 2
  multiplicity 3
  ms 0
}

set forte {
  job_type fci
}

energy('forte')

compare_values(refscf, get_variable("SCF total energy"),11, "SCF energy") #TEST
compare_values(reffci, get_variable("CURRENT ENERGY"),11, "FCI energy") #TEST
