import forte

molecule {
0 1
H
H 1 0.75
}

set {
  basis sto-3g
  scf_type pk
  e_convergence 12
}

set forte {
  active_space_solver external 
#  active_space_solver fci 
}

energy('scf')
#compare_values(refscf, variable("CURRENT ENERGY"),11, "SCF energy") #TEST
energy('forte')
#compare_values(reffci, variable("CURRENT ENERGY"),11, "FCI energy") #TEST
