
molecule {
O
H 1 1.0
H 1 1.0 2 104.5
}

set e_convergence 10
energy('CCSD/cc-pVDZ')
