#This tests the EX-CI procedure using energy selection only on the first state
#! Generated using commit GITCOMMIT
# Tests root-selection 

import forte 

refscf = -14.839846512738 #TEST
refaci = -14.885010912424 #TEST
refacipt2 = -14.889974494109 #TEST

molecule li2{
   Li
   Li 1 2.0000
}

set {
  basis DZ
  e_convergence 10
  d_convergence 10
  r_convergence 10
  reference rhf
  scf_type pk
  docc = [2,0,0,0,0,1,0,0]
  guess gwh
}

set forte {
  active_space_solver aci
  sci_excited_algorithm average
  aci_pq_function average
  root 0
  root_sym 0
  gamma 0.1
  sigma 0.005
  nroot 2
  charge 0
  sci_enforce_spin_complete false
  active_guess_size 56
  aci_n_average 1 # this overrides the default value
}

Escf, wfn = energy('scf', return_wfn=True)

compare_values(refscf, variable("CURRENT ENERGY"),9, "SCF energy") #TEST

energy('forte', ref_wfn=wfn)
compare_values(refaci, variable("ACI ENERGY"),9, "ACI energy") #TEST
compare_values(refacipt2, variable("ACI+PT2 ENERGY"),8, "ACI+PT2 energy") #TEST
