#! This tests the Adaptive Path-Integral FCI procedure with no prescreening
#! Generated using commit GITCOMMIT

import forte

refscf = -14.6097447380899563 #TEST
refpci = -14.646159980219  #TEST
refpostdiag = -14.646164857383  #TEST

molecule li2{
   Li
   Li 1 2.0000
}

set {
  basis sto-3g
  scf_type pk
  e_convergence 12
}

set forte {
  active_space_solver ewci
  PCI_GENERATOR WALL-CHEBYSHEV
  pci_spawning_threshold 0.0001
  pci_post_diagonalize true
  DIAG_ALGORITHM DLSOLVER
  pci_e_convergence 12
  PCI_STOP_HIGHER_NEW_LOW true
}
energy('scf')
compare_values(refscf, variable("CURRENT ENERGY"), 11, "SCF energy") #TEST

energy('forte')
compare_values(refpci, variable("EWCI ENERGY"), 11, "EWCI energy") #TEST
compare_values(refpostdiag, variable("EWCI POST DIAG ENERGY"), 10, "EWCI POST DIAG ENERGY") #TEST

