import forte

# refscf =   -115.6554016101969893
refdsrgpt2 = -115.7618648965

molecule {
-1 1
C       -2.2314881720      2.3523969887      0.1565319638
C       -1.1287322054      1.6651786288     -0.1651010551
H       -3.2159664855      1.9109197306      0.0351701750
H       -2.1807424354      3.3645292222      0.5457999612
H       -1.2085033449      0.7043108616     -0.5330598833
--
1 1
C        0.2601218384      2.1970946692     -0.0290628762
H        0.7545456004      2.2023392001     -1.0052240245
H        0.8387453665      1.5599644558      0.6466877402
H        0.2749376338      3.2174213526      0.3670138598

     units angstrom
     no_reorient
     symmetry c1
}

set {
  basis                         sto-3g
  scf_type                      pk
  docc                          [12]
  freeze_core                   true
  frozen_docc                   [3]
  frozen_uocc                   [0]

}


set forte {
  embedding                     true
  embedding_reference           hf          # Only with CAS reference can we mix or fix ref! In HF reference, there is no active!
  embedding_cutoff_method       threshold
  embedding_threshold           0.5         # This is the default threshold
  restricted_docc               [8]
  active                        [2]
  active_space_solver           fci
  correlation_solver            dsrg-mrpt2
  mcscf_reference               false
  MCSCF_IGNORE_FROZEN_ORBS      true
}

energy('forte')
compare_values(refdsrgpt2,variable("CURRENT ENERGY"),8,"CASCI-PT2-in-RHF energy")
