# HF, RHF canonical orbitals, CAS-CI(2,2)
#! Generated using commit GITCOMMIT

import forte


refscf = -99.983408932712
reflci = -99.9858586140777

molecule hf{
   F
   H 1 1.732878731527
units bohr
}

set {
  basis 6-31G
  e_convergence 10
  d_convergence 10
  r_convergence 10
}

set forte{
  job_type aci
  det_threshold   2.00
  den_threshold   2.00
  energy_type     full
  restricted_docc [2,0,1,1]
  active          [2,0,0,0]
}

energy('mcscf')
compare_values(refscf, variable("SCF total energy"),10, "SCF energy") #TEST
energy('forte')
compare_values(reflci, variable("LAMBDA-CI ENERGY"),10, "Lambda-CI energy") #TEST
