import forte 

refci = -99.971809687595439
molecule {
0 1
H
F 1 1.2
units angstrom
}


set {
  basis     cc-pvdz
  reference rhf
  scf_type  direct
  diis_start 10
}

set forte {
  print 1
  #ALTERNATIVE_CASSCF FTHF
  RESTRICTED_DOCC    [1, 0, 0, 0]
  ACTIVE             [3, 0, 1, 1]
  TEMPERATURE        30.0
  job_type           FCI
}
energy('scf')
mints()
ft_casci = energy('forte')
compare_values(refci, ft_casci, 6, "FT-CAS-CI Energy")
