# CASSCF/6-31G** energy

import forte

refcasscf = -75.641108837310796

molecule {
O
H 1 1.00
H 1 1.00 2 103.1
}

set {
  scf_type        pk
  basis           3-21g
  reference       rhf
  frozen_docc     [1, 0, 0, 0]
  active          [3, 0, 1, 2]
  e_convergence   1e-10
  d_convergence   1e-10
  mcscf_r_convergence 1e-8
  mcscf_e_convergence 1e-10
}

mcscf_psi4 = energy('casscf')

set forte {
  active_space_solver   fci
  frozen_docc           [1, 0, 0, 0]
  active                [3, 0, 1, 2]
  mcscf_e_convergence   1e-10
  mcscf_g_convergence   1e-6
  mcscf_ignore_frozen_orbs false
}

mcscf_forte = energy('forte')

compare_values(refcasscf, mcscf_forte, 6, 'CASSCF Energy')  #TEST
