#! CASSCF/6-31G** energy point
import forte
refcasscf  = -75.641108837310796
#ref_my_casscf = 

molecule {
O
H 1 1.00
H 1 1.00 2 103.1
}

set {
    scf_type        out_of_core
    df_basis_guess   false
    basis           3-21g
    reference       rhf
    frozen_docc     [1, 0, 0, 0]
    active          [3, 0, 1, 2]
    e_convergence   1e-6
    d_convergence   1e-10
}


energy('casscf')
energy('scf')
set scf_type direct
set forte {
    casscf_reference true
    frozen_docc     [1, 0, 0, 0]
    active          [3, 0, 1, 2]
    int_type        conventional
    FCI_ITERATIONS        40
    e_convergence         1e-6
    CASSCF_E_CONVERGENCE  1e-7
    CAS_TYPE             FCI
    CASSCF_ITERATIONS    1
    print                0
    CASSCF_FREEZE_CORE   true
    CASSCF_DEBUG_PRINTING true
}


#mints()
energy('forte')

#compare_values(, casscf_energy, 6, 'CASSCF Energy')  #TEST
