import libadaptive

refscf = -14.38637172680087
reffci = -14.387401674585

molecule {
1 2
Li
Li 1 R
R = 3.0
units bohr
}

set {
  reference rohf
  basis sto-3g
}

energy('forte-fci')

compare_values(refscf, get_variable("SCF total energy"),11, "SCF energy") #TEST
compare_values(reffci, get_variable("CURRENT ENERGY"),11, "FCI energy") #TEST
