#! This tests the Adaptive Path-Integral FCI procedure with no prescreening
#! Generated using commit GITCOMMIT

import forte

molecule li2{
   Li
   Li 1 2.0000
}

set {
  basis sto-3g
  scf_type pk
  e_convergence 12
}

set forte {
  job_type test_ambit
}
energy('forte')
compare_values(0.0, variable("AMBIT MAX ERROR"), 10, "Ambit max error") #TEST
