import forte 

molecule {
0 1
H
F 1 1.2
units angstrom
}


set {
  basis     3-21g
  reference rhf
  scf_type  direct
}

set forte {
  print 1
  ALTERNATIVE_CASSCF FTHF
  RESTRICTED_DOCC    [1, 0, 0, 0]
  ACTIVE             [3, 0, 1, 1]
  TEMPERATURE        10.0
  job_type           FCI
}
energy('scf')
mints()
energy('forte')
