#! CASSCF/6-31G** energy point
import forte 
molecule {
O
H 1 1.00
H 1 1.00 2 103.1
}

set {
    basis           6-31G**
    reference       rhf
    restricted_docc [1, 0, 0, 0]
    active          [3, 0, 1, 2] 
    scf_type        gtfock
    mcscf_type      conv_parallel
}

casscf_energy = energy('casscf')

compare_values(-76.073865006902, casscf_energy, 6, 'CASSCF Energy')  #TEST
set forte {
    restricted_docc [1, 0, 0, 0]
    active          [3, 0, 1, 2] 
    job_type        mcscf_two_step
}
forte_energy = energy('forte')
compare_values(casscf_energy, forte_energy, 6, "FORTE CASSCF Energy")
