#! This tests the Adaptive-CI procedure using energy selection


import libadaptive

refscf = -14.839846512738 #TEST
refaci = -14.889511432927 #TEST
refacipt2 = -14.890262934187 #TEST

molecule li2{
0 1
   Li
   Li 1 2.0000
}

set {
  basis DZ
  e_convergence 10
  d_convergence 10
  r_convergence 10
  docc = [2,0,0,0,0,1,0,0]
  reference rohf
}


set libadaptive {
  multiplicity 1
  SELECT_TYPE aimed_energy
  perturb_select false
  excited_algorithm state_average
  q_rel true
  q_reference adjacent
  q_function average
  TAUP 0.001000
  TAUQ 0.001000
  nroot 3
  charge 0
}

energy('ex-aci')

compare_values(refscf, get_variable("SCF total energy"),9, "SCF energy") #TEST
compare_values(refaci, get_variable("EX-ACI ENERGY"),9, "EX-ACI energy") #TEST
compare_values(refacipt2, get_variable("EX-ACI+PT2 ENERGY"),8, "EX-ACI+PT2 energy") #TEST
