#! This tests the Adaptive-CI procedure using energy selection


import libadaptive

refscf = -14.839846512738 #TEST
refaci = -14.890309863339 #TEST
refacipt2 = -14.890403831432 #TEST

molecule li2{
   Li
   Li 1 2.0000
}

set {
  basis DZ
  e_convergence 10
  d_convergence 10
  r_convergence 10
}

set mcscf {
  reference rhf
  docc = [2,0,0,0,0,1,0,0]
}

set libadaptive {
  frozen_docc = [0,0,0,0,0,0,0,0]
  SELECT_TYPE aimed_energy
  perturb_select false
  excited_algorithm state_average
  q_rel true
  q_reference adjacent
  q_function average
  TAUP 0.001000
  TAUQ 0.0001000
  nroot 2
  charge 0
}

energy('mcscf')
energy('ex-aci')

compare_values(refscf, get_variable("SCF total energy"),9, "SCF energy") #TEST
compare_values(refaci, get_variable("EX-ACI ENERGY"),9, "EX-ACI energy") #TEST
compare_values(refacipt2, get_variable("EX-ACI+PT2 ENERGY"),8, "EX-ACI+PT2 energy") #TEST
