#! Generated using commit GITCOMMIT

import forte

memory 500 mb

Ecas_psi4  = -226.574527271815526
Ept2_ur    = -226.911835889672631
Ept2_pr    = -226.915446301068442

molecule pbenzyne{
  0 1
   C   0.0000000000  -2.5451795941   0.0000000000
   C   0.0000000000   2.5451795941   0.0000000000
   C  -2.2828001669  -1.3508352528   0.0000000000
   C   2.2828001669  -1.3508352528   0.0000000000
   C   2.2828001669   1.3508352528   0.0000000000
   C  -2.2828001669   1.3508352528   0.0000000000
   H  -4.0782187459  -2.3208602146   0.0000000000
   H   4.0782187459  -2.3208602146   0.0000000000
   H   4.0782187459   2.3208602146   0.0000000000
   H  -4.0782187459   2.3208602146   0.0000000000

  units bohr
  noreorient
}

set globals{
  basis                  sto-3g
  df_basis_scf           cc-pvdz-jkfit
  df_basis_mp2           cc-pvdz-jkfit
  reference              rhf
  scf_type               df
  d_convergence          8
  e_convergence          12
  mcscf_type             df
  mcscf_e_convergence    12
  mcscf_r_convergence    8
  mcscf_diis_start       8
  mcscf_max_rot          0.2
  docc                   [5,3,1,1,0,1,5,4]
# restricted_docc        [5,3,0,0,0,0,4,4]
# active                 [1,0,1,2,1,2,1,0]
  restricted_docc        [5,3,1,1,0,1,4,4]
  active                 [1,0,0,0,0,0,1,0]
}
Ecas, wfn = energy('casscf', return_wfn=True)
compare_values(Ecas_psi4, Ecas, 9, "CASSCF(2,2)/STO-3G energy (PSI4)")

set forte{
  active_space_solver    cas
  correlation_solver     sa-mrdsrg
  corr_level             pt2
  frozen_docc            [2,1,0,0,0,0,2,1]
  restricted_docc        [3,2,0,0,0,0,2,3]
  active                 [1,0,1,2,1,2,1,0]
  dsrg_s                 0.5
  relax_ref              once
  e_convergence          12
  r_convergence          8
  int_type               diskdf
}
energy('forte', ref_wfn=wfn)
Eupt2 = variable("UNRELAXED ENERGY")
Eprpt2 = variable("PARTIALLY RELAXED ENERGY")
compare_values(Ept2_ur, Eupt2, 9, "DSRG-MRPT2 unrelaxed energy")
compare_values(Ept2_pr, Eprpt2, 9, "DSRG-MRPT2 partially relaxed energy")
