#! Generated using commit GITCOMMIT

import forte

molecule {
0 1
Li
H 1 R

R = 3.0
units bohr 
}

set {
  basis sto-3g
  reference rhf
  test_rdms true
  scf_type pk
  e_convergence 12
}

set forte {
  job_type fci
  fci_max_rdm 3
}

energy('scf')
energy('forte')

compare_values(0.0, get_variable("AAAA 2-RDM ERROR"),12, "AAAA 2-RDM") #TEST
compare_values(0.0, get_variable("BBBB 2-RDM ERROR"),12, "BBBB 2-RDM") #TEST
compare_values(0.0, get_variable("ABAB 2-RDM ERROR"),12, "ABAB 2-RDM") #TEST
compare_values(0.0, get_variable("AABAAB 3-RDM ERROR"),12, "AABAAB 3-RDM") #TEST
compare_values(0.0, get_variable("ABBABB 3-RDM ERROR"),12, "ABBABB 3-RDM") #TEST
compare_values(0.0, get_variable("AAAAAA 3-RDM ERROR"),12, "AAAAAA 3-RDM") #TEST
compare_values(0.0, get_variable("BBBBBB 3-RDM ERROR"),12, "BBBBBB 3-RDM") #TEST
