#! This tests the Adaptive Path-Integral FCI procedure with dynamic prescreening

import libadaptive

refscf = -14.6097447388741113 #TEST
refapifci = -14.646160290078 #TEST

molecule li2{
   Li
   Li 1 2.0000
}

set {
  basis sto-3g
  e_convergence 8
}

set libadaptive {
  tau 0.1
  spawning_threshold 0.0001
  dynamic_prescreening true
}

energy('apici')

compare_values(refscf, get_variable("SCF total energy"),7, "SCF energy") #TEST
compare_values(refapifci, get_variable("APIFCI ENERGY"),7, "APIFCI energy") #TEST

