#! This tests the Adaptive Path-Integral FCI procedure with dynamic prescreening
#! Generated using commit a65ae7a89c66a04f62cab1fadf05bfd7d88f0c69

import forte

refscf = -14.6097447388741113 #TEST
refapifci = -14.646160290078 #TEST

molecule li2{
   Li
   Li 1 2.0000
}

set {
  basis sto-3g
  e_convergence 8
}

set forte {
  job_type apici
  tau 0.1
  spawning_threshold 0.0001
  dynamic_prescreening true
}
energy('scf')
energy('forte')

compare_values(refscf, get_variable("SCF total energy"),7, "SCF energy") #TEST
compare_values(refapifci, get_variable("APIFCI ENERGY"),7, "APIFCI energy") #TEST

