#! Test cholesky integrals (loose tolerance) with frozen core and virtuals

import forte

refscf = -112.67064846447
reffci = -112.74447057400

molecule {
0 1
C
O 1 R
R = 2.5
units bohr
}

set {
  basis cc-pVDZ
  scf_type pk
  e_convergence 12
}

set forte {
  active_space_solver fci
  int_type cholesky
  cholesky_tolerance 1.0e-6
  frozen_docc      [2 ,0 ,0 ,0]
  restricted_docc  [2 ,0 ,0 ,0]
  active           [2 ,2 ,2 ,2]
  e_convergence 12
}

energy('forte')
compare_values(refscf, variable("SCF TOTAL ENERGY"), 9, "SCF energy") #TEST
compare_values(reffci, variable("CURRENT ENERGY"), 9, "FCI energy") #TEST
