import forte
molecule naphthlanene{
    H   1.240557   2.492735   0.000000
    H  -1.240557  -2.492735   0.000000
    H  -1.240557   2.492735   0.000000
    H   1.240557  -2.492735   0.000000
    H   3.377213   1.246082   0.000000
    H  -3.377213  -1.246082   0.000000
    H  -3.377213   1.246082   0.000000
    H   3.377213  -1.246082   0.000000
    C   0.000000   0.716253   0.000000
    C   0.000000  -0.716253   0.000000
    C   1.241539   1.403577   0.000000
    C  -1.241539  -1.403577   0.000000
    C  -1.241539   1.403577   0.000000
    C   1.241539  -1.403577   0.000000
    C   2.432418   0.707325   0.000000
    C  -2.432418  -0.707325   0.000000
    C  -2.432418   0.707325   0.000000
    C   2.432418  -0.707325   0.000000
}
set globals {
  docc [9,6,1,1,1,2,7,7]
  basis sto-3g
  e_convergence 1e-12
  d_convergence 1e-12
}

energy('scf')
mints()
set forte {
  frozen_docc  [9, 6, 0, 0, 0, 0, 7, 7]
  active       [0, 0, 2, 3, 2, 3, 0, 0]
  job_type     FCI
  int_type     cholesky
  cholesky_tolerance 1e-14
  PRINT_NO     true
}
fci_dsrg_energy = energy('forte')

energy('scf')
mints()
set scf_type direct
set forte {
  dmrg_wfn_irrep             0
  dmrg_wfn_multp             1
  frozen_docc           [9, 6, 0, 0, 0, 0, 7, 7]
  active                [0, 0, 2, 3, 2, 3, 0, 0]
  active_space_solver               DMRG
  int_type              cholesky
  cholesky_tolerance     1e-14
  dmrgscf_max_iter        1
  dmrg_print_corr         false
  mps_chkpt               false
  dmrg_states             [200, 500, 1000, 6000]
  dmrg_econv              [1e-8, 1e-8, 1e-8, 1e-12]
  dmrg_maxsweeps          [5, 5, 5, 100]
  dmrg_noiseprefactors    [0.03, 0.03, 0.03, 0.0]
  job_type                DMRG
}
dmrg_dsrg_energy = energy('forte')

print fci_dsrg_energy - dmrg_dsrg_energy
  

