molecule {
0 1
H
H 1 R
R = 1.5
units bohr
symmetry c1
}

set {
  basis sto-3g
  scf_type pk
  e_convergence 14
}

e, wfn = energy('fci',return_wfn=True)
fcidump(wfn,oe_ints=['EIGENVALUES'])
