import libadaptive

refscf = -14.35188047620 #TEST
refsrg = -14.413732415377 #TEST

molecule {
0 1
Be
}

set {
  basis sto-3g
  reference rhf
  e_convergence 12
}

set libadaptive {
  srg_eta white
  srg_smax 30.0
  srg_odeint FEHLBERG78
  det_threshold 0.01
  SRG_DT 0.01
  SRG_ODEINT_ABSERR 1.0e-6
  SRG_ODEINT_RELERR 1.0e-6
}

energy('srg')

compare_values(refscf, variable("SCF total energy"),10, "SCF energy") #TEST
compare_values(refsrg, variable("CURRENT ENERGY"),10, "SR-SRGSD energy") #TEST
