# H2O singlet, 6-31G* RHF/GASCI(RASCI) with spin-adapted code

import forte

refgasci = -76.0296830130

molecule h2o{
O
H 1 1.00
H 1 1.00 2 103.1
}

set {
  basis 6-31G**
  e_convergence 12
  d_convergence 8
  r_convergence 8
  guess gwh
}

set scf {
  scf_type pk
  reference rohf
}

set forte {
  active_space_solver genci
  multiplicity        1
  ms                  0.0
  nroot               1
  root_sym            0
  restricted_docc     [1,0,0,0]
  restricted_uocc     [8,2,3,5]
  gas1                [2,0,1,1]
  gas2                [1,0,0,1]
  gas1min             [6]
  fci_test_rdms       true
  ci_spin_adapt       true
  mcscf_reference    false
}

energy('forte')
compare_values(refgasci, variable("CURRENT ENERGY"),9, "GASCI energy")
compare_values(0.0, variable("AA 1-RDM ERROR"),12, "AA 1-RDM") #TEST
compare_values(0.0, variable("BB 1-RDM ERROR"),12, "BB 1-RDM") #TEST
compare_values(0.0, variable("AAAA 2-RDM ERROR"),12, "AAAA 2-RDM") #TEST
compare_values(0.0, variable("BBBB 2-RDM ERROR"),12, "BBBB 2-RDM") #TEST
compare_values(0.0, variable("ABAB 2-RDM ERROR"),12, "ABAB 2-RDM") #TEST
compare_values(0.0, variable("AABAAB 3-RDM ERROR"),12, "AABAAB 3-RDM") #TEST
compare_values(0.0, variable("ABBABB 3-RDM ERROR"),12, "ABBABB 3-RDM") #TEST
compare_values(0.0, variable("AAAAAA 3-RDM ERROR"),12, "AAAAAA 3-RDM") #TEST
compare_values(0.0, variable("BBBBBB 3-RDM ERROR"),12, "BBBBBB 3-RDM") #TEST
