# H-He-H singlet-triplet splitting, def2-tzvp ROHF/CASCI

import forte 

# The triplet ROHF energy
ref_rohf =  -3.851030416477
# Reference value in wavenumbers
ref_split = (-3.851214594496629 - -3.851030416685039) * 219474.63

molecule HHeH {
0   3
H   0.0  0.0 -2.0
He  0.0  0.0  0.0
H   0.0  0.0  2.0
}

set global{
    e_convergence 1e-10
    d_convergence 1e-10
    scf_type  pk
    basis def2-tzvp
    reference ROHF
}

set forte {
  restricted_docc     [1,0,0,0,0,0,0,0]
  active              [1,0,0,0,0,1,0,0]
  active_space_solver genci
  multiplicity        3
  root_sym            5
  ms                  0.0
  e_convergence       1e-10
  mcscf_reference    false
}

escf = energy('scf')
compare_values(ref_rohf, escf, 10, "SCF energy") 
triplet = energy('forte')


set forte {
  active_space_solver genci
  restricted_docc     [1,0,0,0,0,0,0,0]
  active              [1,0,0,0,0,1,0,0]
  multiplicity        1
  root_sym            0
  mcscf_reference    false
}

singlet = energy('forte')
fci_split = (singlet - triplet) * 219474.63
compare_values(ref_split, fci_split, 3, "FCI splitting")
