#! Generated using commit GITCOMMIT 
# Basic ACI calculation with energy threshold selection

import forte

refscf = -14.8435208330370827 #TEST
refaci = -14.880521233114 #TEST
refacipt2 = -14.880583937553 #TEST

molecule li2{
   Li
   Li 1 2.0000
}

set {
  basis cc-pcvtz
  e_convergence 10
  d_convergence 10
  r_convergence 10
}

set scf {
  scf_type pk
  reference rhf
  docc = [2,0,0,0,0,1,0,0]
}

set forte {
  job_type = aci
  frozen_docc [1,0,0,0,0,1,0,0]
  ACI_SELECT_TYPE aimed_energy
  diag_algorithm davidsonliulist
  sigma 0.0015
  gamma 0.0015
  nroot 1
  charge 0
  aci_enforce_spin_complete true
}

E, wfn = energy('scf', return_wfn=True)

compare_values(refscf, get_variable("CURRENT ENERGY"),9,"SCF energy")

energy('forte', ref_wfn=wfn)

compare_values(refaci, get_variable("ACI ENERGY"),9,"ACI energy")
compare_values(refacipt2, get_variable("ACI+PT2 ENERGY"),9,"ACI+PT2 energy")

