#! Generated using commit GITCOMMIT

import forte

refscf = -14.351880476202
refct  = -14.413735630340293 # From a spin-orbit pilot code

molecule {
0 1
Be
}

set {
  basis sto-3g
  reference rhf
  scf_type pk
  e_convergence 12
}

set forte{
	det_threshold 0.01
        maxiter 100
	job_type tensorsrg
	srg_mode ct
}

energy('scf')
compare_values(refscf, variable("SCF total energy"),10, "SCF energy") #TEST
energy('forte')
compare_values(refct, variable("CURRENT ENERGY"),10, "SR-CTSD energy") #TEST
