#! Generated using commit GITCOMMIT

import forte

refscf = -7.862246310410
reffci = -7.716243788616362

molecule {
0 1
Li
H 1 R

R = 3.0
units bohr 
}

set {
  basis sto-3g
  reference rhf
  scf_type direct
  e_convergence 12
}

set forte {
  #job_type fci
  print 1
  #active [3,0,1,1]
  restricted_docc [4,0,1,1]
  #root_sym 2
  #multiplicity 3
  #ms 0
  alternative_casscf FTHF
  TEMPERATURE        1.0
}


energy('scf')
#compare_values(refscf, get_variable("CURRENT ENERGY"),11, "SCF energy") #TEST
mints()

energy('forte')
compare_values(reffci, get_variable("CURRENT ENERGY"),11, "FCI energy") #TEST
