#! This tests the Adaptive-CI procedure using energy selection
#! Generated using commit GITCOMMIT
#


import forte 

refscf = -2.0310813811962447 #TEST
refaci = -2.115402994945 #TEST
refacipt2 = -2.116267624645 #TEST

molecule li2{
0 1
H -0.4  0.0 0.0
H  0.4  0.0 0.0
H  0.1 -0.3 1.0
H -0.1  0.5 1.0
}

set {
  basis cc-pVDZ
  e_convergence 10
  d_convergence 10
  r_convergence 10
  scf_type pk
  guess gwh
}

set forte {
  job_type aci
  aci_SELECT_TYPE amp
  aci_add_aimed_degenerate false
  aci_project_out_spin_contaminants false
  aci_enforce_spin_complete false
  gamma  8.0
  sigma 0.000500
  aci_nroot 1
  charge 0
  diag_algorithm full
}

energy('scf')

compare_values(refscf, variable("CURRENT ENERGY"),9, "SCF energy") #TEST

energy('forte')
compare_values(refaci, variable("ACI ENERGY"),9, "ACI energy") #TEST
compare_values(refacipt2, variable("ACI+PT2 ENERGY"),8, "ACI+PT2 energy") #TEST
