#! This tests the Adaptive-CI procedure using energy selection
#! Generated using commit GITCOMMIT
#


import forte 

refscf = -2.03108138291133 #TEST
refaci = -2.115402996781 #TEST
refacipt2 = -2.116267626339 #TEST

molecule li2{
0 1
H -0.4  0.0 0.0
H  0.4  0.0 0.0
H  0.1 -0.3 1.0
H -0.1  0.5 1.0
}

set {
  basis cc-pVDZ
  e_convergence 10
  d_convergence 10
  r_convergence 10
  scf_type pk
}

set forte {
  job_type aci
  SELECT_TYPE amp
  aci_add_aimed_degenerate false
  project_out_spin_contaminants false
  enforce_spin_complete false
  TAUP 0.0040000
  TAUQ 0.000500
  nroot 1
  charge 0
  diag_algorithm davidson
  quiet_mode true
}

energy('scf')

compare_values(refscf, get_variable("CURRENT ENERGY"),9, "SCF energy") #TEST

energy('forte')
compare_values(refaci, get_variable("ACI ENERGY"),9, "ACI energy") #TEST
compare_values(refacipt2, get_variable("ACI+PT2 ENERGY"),8, "ACI+PT2 energy") #TEST
