#! Generated using commit GITCOMMIT

import forte
memory 1 gb

r_scf = -154.809201458319
r_0ag = -154.847006095903

molecule butadiene{
0 1
H  1.080977 -2.558832  0.000000
H -1.080977  2.558832  0.000000
H  2.103773 -1.017723  0.000000
H -2.103773  1.017723  0.000000
H -0.973565 -1.219040  0.000000
H  0.973565  1.219040  0.000000
C  0.000000  0.728881  0.000000
C  0.000000 -0.728881  0.000000
C  1.117962 -1.474815  0.000000
C -1.117962  1.474815  0.000000

symmetry c1
}

set {
  reference         rhf
  scf_type          pk
  basis             def2-svp
  e_convergence     10
  d_convergence     8
  maxiter           100
}
Escf, wfn = energy('scf', return_wfn=True)
compare_values(r_scf, Escf, 8, "SCF energy")

set forte{
  active_space_solver aci
  rotate_mos          [1,17,20]
  orbital_type        local
  localize_space      [14,17]
  e_convergence       12
  frozen_docc         [4]
  restricted_docc     [9]
  active              [4]
  sigma               0.0001
  ms                  0.0
  multiplicity        1
  nroot               1
  root_sym            0
  charge              0
  mcscf_reference    false
}

E = energy('forte')
compare_values(r_0ag, E, 8, "ACI ENERGY")
