#! L-CTSD cc-pVDZ energy for a H4 molecule.  This tests CT without symmetry.
#! The reference value is from a spin-integrated code.
#! Generated using commit GITCOMMIT

import forte

refscf = -2.03108138291133 #TEST
refct  = -2.118873553491473 #TEST

molecule hf {
0 1
H -0.4  0.0 0.0
H  0.4  0.0 0.0
H  0.1 -0.3 1.0
H -0.1  0.5 1.0
}

set {
  reference rhf
  e_convergence 12
  freeze_core False
  scf_type pk
  df_scf_guess false
}

set forte {
  job_type tensorsrg
  srg_mode ct
}

set basis cc-pVDZ
energy('scf')
compare_values(refscf, variable("SCF total energy"),10, "SCF energy") #TEST
energy('forte')
compare_values(refct, variable("CURRENT ENERGY"),10, "SR-CTSD energy") #TEST
