#This tests the EX-CI procedure using energy selection
#! Generated using commit GITCOMMIT

import forte

refscf = -14.839846512738 #TEST
refaci = -14.888681366664 #TEST
refacipt2 = -14.890314792677 #TEST

molecule li2{
0 1
   Li
   Li 1 2.0000
}

set {
  basis DZ
  e_convergence 10
  d_convergence 10
  r_convergence 10
}

set scf {
  reference rhf
  docc = [2,0,0,0,0,1,0,0]
}

set forte {
  job_type = ex-aci
  multiplicity 1
  SELECT_TYPE energy
  perturb_select false
  TAUP 0.000100
  TAUQ 0.00001000
  nroot 1
  charge 0
}

energy('scf')
energy('forte')

compare_values(refscf, get_variable("SCF total energy"),9, "SCF energy") #TEST
compare_values(refaci, get_variable("EX-ACI ENERGY"),9, "EX-ACI energy") #TEST
compare_values(refacipt2, get_variable("EX-ACI+PT2 ENERGY"),8, "EX-ACI+PT2 energy") #TEST
