# test passing a refeference wave function computed in the same file
import forte

reffci = -14.595808852754013

molecule {
0 1
Li
Li 1 R
R = 2.9
units bohr
}

set {
  basis sto-3g
  scf_type pk
  reference rohf
  e_convergence 12
}

e, ref_wfn = energy('scf',return_wfn=True)

molecule {
0 1
Li
Li 1 R
R = 3.0
units bohr
}

set forte {
  active_space_solver genci
  mcscf_reference false
}

energy('forte',ref_wfn=ref_wfn)
compare_values(reffci, variable("CURRENT ENERGY"),11, "FCI energy") #TEST
