#! Generated using commit GITCOMMIT

import forte

refscf  = -108.231992299023318 #TEST
refdsrg = -108.433328203370323 # -108.433785371452998 #TEST

molecule {
0 1
N
N 1 3.0
}

set {
  basis          cc-pvdz
  reference      rhf
  scf_type       pk
  e_convergence  12
  d_convergence  12
}

set forte {
  job_type       tensorsrg
  srg_comm       fo
  dsrg_s         0.1
  maxiter        100
}

energy('scf')
compare_values(refscf,variable("CURRENT ENERGY"),8,"SCF energy") #TEST

energy('forte')
compare_values(refdsrg,variable("CURRENT ENERGY"),8,"DSRGSD energy") #TEST
