#! Generated using commit GITCOMMIT

import forte

Emcscf_avg = -106.75288506058001

molecule {
  0 1
  Li
  F  1 R
  R = 10.000

  units bohr
}

basis {
  assign Li Li-cc-pvdz
  assign F  aug-cc-pvdz
[ Li-cc-pvdz ]
spherical
****
Li     0
S   8   1.00
   1469.0000000              0.0007660
    220.5000000              0.0058920
     50.2600000              0.0296710
     14.2400000              0.1091800
      4.5810000              0.2827890
      1.5800000              0.4531230
      0.5640000              0.2747740
      0.0734500              0.0097510
S   8   1.00
   1469.0000000             -0.0001200
    220.5000000             -0.0009230
     50.2600000             -0.0046890
     14.2400000             -0.0176820
      4.5810000             -0.0489020
      1.5800000             -0.0960090
      0.5640000             -0.1363800
      0.0734500              0.5751020
S   1   1.00
      0.0280500              1.0000000
P   3   1.00
      1.5340000              0.0227840
      0.2749000              0.1391070
      0.0736200              0.5003750
P   1   1.00
      0.0240300              1.0000000
D   1   1.00
      0.1239000              1.0000000
****
}

set globals{
  reference           rhf
  scf_type            out_of_core
  maxiter             300
  e_convergence       10
  d_convergence       10
  docc                [4,0,1,1]
  restricted_docc     [3,0,1,1]
  active              [2,0,0,0]
  mcscf_r_convergence 7
  mcscf_e_convergence 10
  mcscf_maxiter       250
  mcscf_diis_start    6
  num_roots           2
  follow_root         2
  avg_states          [0,1]
}

set forte{
  job_type           dwms-dsrgpt2
  frozen_docc        [3,0,0,0]
  restricted_docc    [0,0,1,1]
  active             [2,0,0,0]
  dsrg_s             0.5
  maxiter            50
  e_convergence      10
  cas_type           cas
  avg_state          [[0,1,2]]
  dwms_zeta          100.0
  dwms_algorithm     sh-0
}

Emcscf, wfn = energy('casscf', return_wfn=True)
compare_values(Emcscf_avg,get_variable("CURRENT ENERGY"),8,"SA-CASSCF energy")

Ept2_root0 = -106.93005699411140
Ept2_root1 = -106.91457748207812
energy('forte',ref_wfn=wfn)
compare_values(Ept2_root0,get_variable("ENERGY ROOT 0"),8,"CASCI/DWMS(sH0)-DSRG-PT2 energy on root 0")
compare_values(Ept2_root1,get_variable("ENERGY ROOT 1"),8,"CASCI/DWMS(sH0)-DSRG-PT2 energy on root 1")

set forte{
  dwms_algorithm sh-1
}
Ept2_root0 = -106.93005699410999
Ept2_root1 = -106.91457784175027
energy('forte',ref_wfn=wfn)
compare_values(Ept2_root0,get_variable("ENERGY ROOT 0"),8,"CASCI/DWMS(sH1)-DSRG-PT2 energy on root 0")
compare_values(Ept2_root1,get_variable("ENERGY ROOT 1"),8,"CASCI/DWMS(sH1)-DSRG-PT2 energy on root 1")

set forte{
  dwms_algorithm sh-0
  dwms_reference pt2
}
Ept2_root0 = -106.92994534239719
Ept2_root1 = -106.91463499737895
energy('forte',ref_wfn=wfn)
compare_values(Ept2_root0,get_variable("ENERGY ROOT 0"),8,"PT2/DWMS(sH0)-DSRG-PT2 energy on root 0")
compare_values(Ept2_root1,get_variable("ENERGY ROOT 1"),8,"PT2/DWMS(sH0)-DSRG-PT2 energy on root 1")

set forte{
  dwms_algorithm sh-1
  dwms_reference pt2
}
Ept2_root0 = -106.92994534239851
Ept2_root1 = -106.91463499781882
energy('forte',ref_wfn=wfn)
compare_values(Ept2_root0,get_variable("ENERGY ROOT 0"),8,"PT2/DWMS(sH1)-DSRG-PT2 energy on root 0")
compare_values(Ept2_root1,get_variable("ENERGY ROOT 1"),8,"PT2/DWMS(sH1)-DSRG-PT2 energy on root 1")
