#! Generated using commit GITCOMMIT

import forte

refscf = -14.54873910108353
reffci = -14.595808852754054

molecule {
0 1
Li
Li 1 R
R = 3.0
units bohr
}

set {
  basis DZ
  scf_type pk
  e_convergence 12
}

set forte {
  job_type fci
}

energy('scf')
energy('forte')
