#! Generated using commit GITCOMMIT

import forte

refscf = -14.7844187667536939
reffci = -14.854408715827343

molecule {
0 1
Li
Li 1 R
R = 3.0
units bohr
}

set {
  basis 6-311G
  scf_type pk
  docc [2,0,0,0,0,1,0,0]
  e_convergence 12
}

set forte {
  active_space_solver fci
}

energy('scf')
compare_values(refscf,variable("CURRENT ENERGY"),10,"SCF energy")

energy('forte')
compare_values(reffci,variable("CURRENT ENERGY"),10,"FCI energy")
