import forte

refmcscf =   -226.575081996603
refdsrgpt2 = -226.883026729816

molecule pbenzyne{
  0 1
  C   0.0000000000  -2.5451795941   0.0000000000
  C   0.0000000000   2.5451795941   0.0000000000
  C  -2.2828001669  -1.3508352528   0.0000000000
  C   2.2828001669  -1.3508352528   0.0000000000
  C   2.2828001669   1.3508352528   0.0000000000
  C  -2.2828001669   1.3508352528   0.0000000000
  H  -4.0782187459  -2.3208602146   0.0000000000
  H   4.0782187459  -2.3208602146   0.0000000000
  H   4.0782187459   2.3208602146   0.0000000000
  H  -4.0782187459   2.3208602146   0.0000000000

  units bohr
}

set globals{
   basis                  sto-3g
}

set forte{
  active_space_solver    fci
  correlation_solver     dsrg-mrpt2
  frozen_docc            [2, 1, 0, 0, 0, 0, 2, 1]
  restricted_docc        [3, 2, 1, 1, 0, 1, 2, 3]
  active                 [1, 0, 0, 0, 0, 0, 1, 0]
  root_sym               0
  nroot                  1
  dsrg_s                 0.5
  casscf_e_convergence   12
  casscf_g_convergence   8
}

energy('forte')
compare_values(refdsrgpt2,variable("CURRENT ENERGY"),9,"DSRG-MRPT2 energy")
