# H2O singlet, 6-31G* RHF/GASCI calculation with multiple GAS spaces

import forte

refscf = -76.0172965561
refaci = -65.93594498028247131  # averaged ACI energy

memory 6000mb
molecule h2o{
O
H 1 1.00
H 1 1.00 2 103.1
}

set global {
  basis 6-31g**
  e_convergence 12
  d_convergence 8
  r_convergence 8
  scf_type direct
  reference rhf
}

set forte {
  active_space_solver genci
  ms                  0.0
  multiplicity        1
  root_sym            0
  charge              0
  e_convergence       10
  gas1                [1,0,0,0]
  gas2                [3,0,1,2]
  gas1max             [2,1]
  gas1min             [0,0]
  avg_state           [[0,1,1],[0,1,1]] # 1 x 1A1 + 1 x 1A1
  fci_test_rdms       true
  mcscf_reference    false
}

eaci = energy('forte')
compare_values(refaci, eaci, 8, "Averaged GASCI energy")

compare_values(0.0, variable("AA 1-RDM ERROR"),12, "AA 1-RDM") #TEST
compare_values(0.0, variable("BB 1-RDM ERROR"),12, "BB 1-RDM") #TEST
compare_values(0.0, variable("AAAA 2-RDM ERROR"),12, "AAAA 2-RDM") #TEST
compare_values(0.0, variable("BBBB 2-RDM ERROR"),12, "BBBB 2-RDM") #TEST
compare_values(0.0, variable("ABAB 2-RDM ERROR"),12, "ABAB 2-RDM") #TEST
compare_values(0.0, variable("AABAAB 3-RDM ERROR"),12, "AABAAB 3-RDM") #TEST
compare_values(0.0, variable("ABBABB 3-RDM ERROR"),12, "ABBABB 3-RDM") #TEST
compare_values(0.0, variable("AAAAAA 3-RDM ERROR"),12, "AAAAAA 3-RDM") #TEST
compare_values(0.0, variable("BBBBBB 3-RDM ERROR"),12, "BBBBBB 3-RDM") #TEST
