#! Generated using commit GITCOMMIT

import forte

refscf = -14.54873910108353
reffci = -14.595808852754054

molecule {
0 1
Li
Li 1 R
R = 3.0
units bohr
}

set {
  basis sto-3g
  scf_type pk
  e_convergence 12
}

set forte {
  job_type fci
}

e,wfn = energy('scf',return_wfn=True)
compare_values(refscf, get_variable("CURRENT ENERGY"),11, "SCF energy") #TEST

forte.run_forte(wfn,psi4.core.get_options())
compare_values(reffci, get_variable("CURRENT ENERGY"),11, "FCI energy") #TEST
