#! Generated using commit GITCOMMIT

import forte

refscf = -14.38637172680087
reffci = -14.387401674585

molecule {
1 2
Li
Li 1 R
R = 3.0
units bohr
}

set {
  reference rohf
  basis sto-3g
  scf_type pk
  e_convergence 12
}

set forte {
  active_space_solver fci
}

energy('scf')
compare_values(refscf, variable("CURRENT ENERGY"),11, "SCF energy") #TEST

energy('forte')
compare_values(reffci, variable("CURRENT ENERGY"),11, "FCI energy") #TEST
