# Li2+ minimal basis ROHF/FCI

import forte

refscf = -14.386371726801
reffci = -14.387401674585

molecule {
1 2
Li
Li 1 R
R = 3.0
units bohr
}

set {
  reference rohf
  basis sto-3g
  scf_type pk
  e_convergence 12
}

set forte {
  active_space_solver genci
  multipole_moment_level 2
}

energy('scf')
compare_values(refscf, variable("CURRENT ENERGY"),11, "SCF energy") #TEST

energy('forte')
compare_values(reffci, variable("CURRENT ENERGY"),11, "FCI energy") #TEST

refvals = [
    ("CURRENT ENERGY"           ,     -14.387401674585),
    ("CURRENT REFERENCE ENERGY" ,     -14.386371726801),
    ("DD SOLVATION ENERGY"      ,       0.000000000000),
    ("DOUBLET <0AG|DM_X|0AG>"   ,       0.000000000000),
    ("DOUBLET <0AG|DM_Y|0AG>"   ,       0.000000000000),
    ("DOUBLET <0AG|DM_Z|0AG>"   ,      -0.000000000000),
    ("DOUBLET <0AG|QM_XX|0AG>"  ,      -4.552036459372),
    ("DOUBLET <0AG|QM_XY|0AG>"  ,       0.000000000000),
    ("DOUBLET <0AG|QM_XZ|0AG>"  ,       0.000000000000),
    ("DOUBLET <0AG|QM_YY|0AG>"  ,      -4.552036459371),
    ("DOUBLET <0AG|QM_YZ|0AG>"  ,       0.000000000000),
    ("DOUBLET <0AG|QM_ZZ|0AG>"  ,       1.178677546179),
    ("DOUBLET |<0AG|DM|0AG>|"   ,       0.000000000000),
    ("ENERGY ROOT 0 2AG"        ,     -14.387401674585),
    ("CI ENERGY"                ,     -14.387401674585),
]   
    
for label, val in refvals:             
    compare_values(val, variable(label),10,label)
