# Generated using commit GITCOMMIT

import forte

ref_grad = psi4.Matrix.from_list([
    [-0.00097432920792, -0.00821370562671, 0.00000000000000],
    [ 0.00097432920792,  0.00821370562671, 0.00000000000000],
    [ 0.00686838256151,  0.00437161767560, 0.00000000000000],
    [-0.00686838256151, -0.00437161767560, 0.00000000000000],
    [-0.00850470477681, -0.00439947627183, 0.00000000000000],
    [ 0.00850470477681,  0.00439947627183, 0.00000000000000],
    [-0.01864988542843, -0.00522278754415, 0.00000000000000],
    [ 0.01864988542843,  0.00522278754415, 0.00000000000000],
    [-0.01909296593289,  0.01416364249501, 0.00000000000000],
    [ 0.01909296593289, -0.01416364249501, 0.00000000000000]
])

molecule butadiene{
H  1.080977 -2.558832  0.000000
H -1.080977  2.558832  0.000000
H  2.103773 -1.017723  0.000000
H -2.103773  1.017723  0.000000
H -0.973565 -1.219040  0.000000
H  0.973565  1.219040  0.000000
C  0.000000  0.728881  0.000000
C  0.000000 -0.728881  0.000000
C  1.117962 -1.474815  0.000000
C -1.117962  1.474815  0.000000
}

set globals {
  reference            rhf
  scf_type             pk
  e_convergence        12
  d_convergence        10
  maxiter              100
  basis                dz
  docc                 [7,1,1,6]
}

set forte{
  job_type             mcscf_two_step
  active_space_solver  fci
  frozen_docc          [2,0,0,2]
  restricted_docc      [5,0,0,4]
  active               [0,2,2,0]
  frozen_uocc          [2,0,0,2]
  e_convergence        1e-12
  casscf_maxiter       100
  casscf_g_convergence 1e-10
  casscf_e_convergence 1e-12
  cpscf_convergence    1e-10
}

grad = gradient('forte')
compare_matrices(ref_grad, grad, 9, "CASSCF(4,4)/DZ gradient on butadiene with frozen orbitals")
