# Tests mp2_nos with spin projected system for multiple roots

import forte

refscf = -75.0525898286472852
refaci = -75.42436743651
refacipt2 = -75.444336436

molecule C2{
0 1
C
C 1 2.6
}

set {
  basis DZ
  scf_type pk
  docc [2,0,0,0,0,2,1,1]
  e_convergence 10
  d_convergence 10
  r_convergence 5
}

set forte {
  active_space_solver aci
  frozen_docc [1,0,0,0,0,1,0,0]
  sigma 0.02
  sci_enforce_spin_complete true
  casscf_reference false
}

energy('forte')
compare_values(refaci, variable("ACI ENERGY"),9, "ACI energy") #TEST
compare_values(refacipt2, variable("ACI+PT2 ENERGY"),7, "ACI+PT2 energy") #TEST
